9906.0
[0, 1, 0, 1, 0, 0, 1, 1, 0, 0, 1, 0, 0, 0, 0, 0, 1, 0, 1, 1]
[16, 1, 10, 10, 1, 18, 3, 18, 3, 3, 7, 19, 1, 6, 18, 3, 7, 10, 19, 6, 18, 18, 7, 19, 6, 1, 16, 1, 1, 3, 18, 7, 18, 16, 3, 10, 3, 19, 19, 18, 6, 16, 16, 16, 3, 18, 7, 10, 19, 6]